h 1 3 0
h -4 -6 0
h 2 5 0
h 6 3 0
1 -7 0
1 7 0
h 15 6 0
h 34 -11 0
h -4 -30 8 0
h -8 -20 -34 0
h -15 30 0
h -11 -1 0
h 30 13 0
h 37 21 -12 0
h -5 -13 0
h -3 -10 0
h -12 7 0
h 12 -7 0
h 37 52 0
1 -52 0
h -21 11 0
h -7 -37 0
h 7 37 0
h 56 -28 0
h 10 28 0
1 -56 0
h 57 7 0
1 -57 0
h 10 4 0
h 2 58 0
h -2 20 0
1 -58 0
h -37 6 0
h -3 6 0
